100 64229

 649 353
173 723
873 320
614 906
158 127
963 179
519 494
73 82
627 196
254 944
804 977
818 377
979 924
502 545
455 270
754 703
133 659
547 990
547 266
90 673
418 53
854 114
857 4
100 1000
91 803
263 787
875 510
129 301
720 152
102 285
624 376
357 757
789 540
234 78
640 19
236 103
714 411
874 934
127 638
867 802
594 467
128 362
428 109
161 876
701 784
759 169
106 513
507 488
815 626
937 947
514 580
951 541
536 51
395 63
849 188
493 33
472 744
491 724
847 137
832 837
404 155
334 302
492 249
573 373
239 255
794 489
487 408
335 987
107 56
239 143
950 53
306 626
169 55
461 837
308 512
36 528
324 562
545 171
552 198
357 319
448 594
966 211
378 117
259 971
244 22
458 803
760 789
206 298
710 136
22 146
419 698
776 643
339 783
564 938
205 692
742 156
53 244
853 843
199 210
875 73
